SECTION Graph
Nodes 15
Edges 35
E 1 2 1
E 1 3 1
E 1 4 1
E 1 5 1
E 1 6 1
E 1 7 1
E 1 8 1
E 2 9 1
E 4 9 1
E 6 9 1
E 8 9 1
E 3 10 1
E 4 10 1
E 7 10 1
E 8 10 1
E 2 11 1
E 3 11 1
E 6 11 1
E 7 11 1
E 5 12 1
E 6 12 1
E 7 12 1
E 8 12 1
E 2 13 1
E 4 13 1
E 5 13 1
E 7 13 1
E 3 14 1
E 4 14 1
E 5 14 1
E 6 14 1
E 2 15 1
E 3 15 1
E 5 15 1
E 8 15 1
END

SECTION Terminals
Terminals 8
T 1
T 9
T 10
T 11
T 12
T 13
T 14
T 15
END

SECTION Tree Decomposition
s td 11 8 15
b 10 1 9 11 12 13 14 15
b 6 1 2 9 11 13 15
b 7 1 3 10 11 14 15
b 2 1 7 10 11 12 13
b 4 1 9 10 11 12 13 14 15
b 9 1 9 10 11 12 13 14 15
b 3 1 4 9 10 13 14
b 5 1 8 9 10 12 13 14 15
b 1
b 8 1 5 12 13 14 15
b 11 1 6 9 11 12 14
10 11
6 10
2 9
4 7
4 9
4 5
9 10
3 5
5 8
1 2
END

EOF
